
Gurobi 12.0.0 (mac64[arm]) logging started Wed Dec 10 00:44:09 2025

Set parameter LogFile to value "/Users/lennardhansmann/Desktop/Newspaperlayout/newspaperlayout/Instances/Diss/Large/L30P180(A)/sol/L30P180A9(A).log"
Set parameter Threads to value 1
Gurobi Optimizer version 12.0.0 build v12.0.0rc1 (mac64[arm] - Darwin 24.6.0 24G90)

CPU model: Apple M3 Pro
Thread count: 11 physical cores, 11 logical processors, using up to 1 threads

Non-default parameters:
TimeLimit  3600
Threads  1

Optimize a model with 34044 rows, 88656 columns and 1120106 nonzeros
Model fingerprint: 0xf7c82b75
Variable types: 8878 continuous, 79778 integer (79778 binary)
Coefficient statistics:
  Matrix range     [2e-03, 1e+04]
  Objective range  [1e+00, 1e+00]
  Bounds range     [1e+00, 1e+04]
  RHS range        [9e-01, 1e+04]
Found heuristic solution: objective -24.4250000
Presolve removed 3920 rows and 25599 columns (presolve time = 5s)...
Presolve removed 4490 rows and 41902 columns
Presolve time: 9.41s
Presolved: 29554 rows, 46754 columns, 525038 nonzeros
Variable types: 3559 continuous, 43195 integer (39872 binary)

Root simplex log...

Iteration    Objective       Primal Inf.    Dual Inf.      Time
       0    1.4939255e+02   2.525296e+02   0.000000e+00     10s
   17225    4.0412584e+01   2.756715e+05   0.000000e+00     10s
   43326    1.4158002e+01   0.000000e+00   0.000000e+00     15s
   43326    1.4158002e+01   0.000000e+00   0.000000e+00     15s

Root relaxation: objective 1.415800e+01, 43326 iterations, 5.22 seconds (11.03 work units)

    Nodes    |    Current Node    |     Objective Bounds      |     Work
 Expl Unexpl |  Obj  Depth IntInf | Incumbent    BestBd   Gap | It/Node Time

     0     0   14.15800    0  774  -24.42500   14.15800   158%     -   15s
     0     0   14.15185    0  779  -24.42500   14.15185   158%     -   15s
     0     0   14.15045    0  731  -24.42500   14.15045   158%     -   16s
H    0     0                       1.0404834   14.15045  1260%     -   16s
H    0     0                       1.3372201   14.15045   958%     -   16s
H    0     0                       1.3950557   14.15045   914%     -   16s
H    0     0                       1.5463994   14.15045   815%     -   16s
     0     0   13.89846    0 1127    1.54640   13.89846   799%     -   20s
     0     0   13.89579    0 1125    1.54640   13.89579   799%     -   20s
     0     0   13.89454    0 1170    1.54640   13.89454   799%     -   20s
     0     0   13.89432    0 1127    1.54640   13.89432   798%     -   21s
     0     0   13.89403    0 1122    1.54640   13.89403   798%     -   21s
     0     0   13.89403    0 1123    1.54640   13.89403   798%     -   21s
     0     0   13.89283    0 1099    1.54640   13.89283   798%     -   21s
H    0     0                       2.4368431   13.89283   470%     -   21s
H    0     0                       2.4480585   13.89283   468%     -   21s
     0     0   13.86143    0 1168    2.44806   13.86143   466%     -   22s
     0     0   13.51168    0 1357    2.44806   13.51168   452%     -   28s
     0     0   13.51161    0 1363    2.44806   13.51161   452%     -   28s
     0     0   13.51154    0 1343    2.44806   13.51154   452%     -   28s
H    0     0                       2.8984719   13.51154   366%     -   29s
H    0     0                       3.8810748   13.51154   248%     -   29s
H    0     0                       3.9830490   13.51154   239%     -   29s
H    0     0                       4.1708105   13.51154   224%     -   29s
H    0     0                       4.1879420   13.51154   223%     -   29s
H    0     0                       5.1006922   13.51154   165%     -   29s
H    0     0                       5.9927991   13.51154   125%     -   29s
H    0     0                       6.0890672   13.51154   122%     -   29s
H    0     0                       6.2070779   13.51154   118%     -   29s
H    0     0                       6.2435618   13.51154   116%     -   29s
H    0     0                       6.3463176   13.51154   113%     -   29s
H    0     0                       6.4764204   13.51154   109%     -   29s
H    0     0                       6.5583488   13.51154   106%     -   29s
H    0     0                       6.6157752   13.51154   104%     -   29s
     0     0   13.43593    0 1347    6.61578   13.43593   103%     -   31s
     0     0   13.43538    0 1349    6.61578   13.43538   103%     -   31s
     0     0   13.43059    0 1342    6.61578   13.43059   103%     -   32s
     0     0   13.42897    0 1373    6.61578   13.42897   103%     -   33s
     0     0   13.42864    0 1331    6.61578   13.42864   103%     -   33s
     0     0   13.42864    0 1330    6.61578   13.42864   103%     -   33s
     0     0   12.89802    0 1646    6.61578   12.89802  95.0%     -   43s
     0     0   12.89237    0 1649    6.61578   12.89237  94.9%     -   44s
     0     0   12.89017    0 1612    6.61578   12.89017  94.8%     -   44s
     0     0   12.88981    0 1619    6.61578   12.88981  94.8%     -   45s
     0     0   12.88981    0 1625    6.61578   12.88981  94.8%     -   45s
H    0     0                       6.6391881   12.88981  94.1%     -   45s
     0     0   12.86670    0 1530    6.63919   12.86670  93.8%     -   47s
     0     0   12.85689    0 1601    6.63919   12.85689  93.7%     -   48s
     0     0   12.85642    0 1601    6.63919   12.85642  93.6%     -   48s
     0     0   12.85635    0 1577    6.63919   12.85635  93.6%     -   48s
     0     0   12.45071    0 1479    6.63919   12.45071  87.5%     -   59s
     0     0   12.43883    0 1496    6.63919   12.43883  87.4%     -   61s
     0     0   12.43834    0 1543    6.63919   12.43834  87.3%     -   61s
     0     0   12.43802    0 1486    6.63919   12.43802  87.3%     -   62s
H    0     0                       7.2043268   12.43802  72.6%     -   62s
H    0     0                       7.2552256   12.43802  71.4%     -   62s
H    0     0                       7.2881214   12.43802  70.7%     -   63s
H    0     0                       7.2910233   12.43802  70.6%     -   63s
H    0     0                       7.5715868   12.43802  64.3%     -   63s
H    0     0                       7.7065885   12.43802  61.4%     -   63s
H    0     0                       7.8302374   12.43802  58.8%     -   63s
     0     0   12.42339    0 1627    7.83024   12.42339  58.7%     -   65s
     0     0   12.42322    0 1620    7.83024   12.42322  58.7%     -   66s
     0     0   12.42003    0 1572    7.83024   12.42003  58.6%     -   66s
     0     0   12.41976    0 1561    7.83024   12.41976  58.6%     -   67s
     0     0   12.21774    0 1700    7.83024   12.21774  56.0%     -   75s
     0     0   12.21725    0 1611    7.83024   12.21725  56.0%     -   75s
     0     0   12.21723    0 1589    7.83024   12.21723  56.0%     -   75s
     0     0   12.19876    0 1676    7.83024   12.19876  55.8%     -   78s
     0     0   12.19604    0 1616    7.83024   12.19604  55.8%     -   79s
     0     0   12.19542    0 1565    7.83024   12.19542  55.7%     -   80s
     0     0   12.01174    0 1692    7.83024   12.01174  53.4%     -   89s
     0     0   12.00987    0 1698    7.83024   12.00987  53.4%     -   89s
     0     0   12.00981    0 1708    7.83024   12.00981  53.4%     -   90s
H    0     0                       8.0875347   12.00981  48.5%     -   90s
H    0     0                       8.1299433   12.00981  47.7%     -   91s
     0     0   11.99620    0 1766    8.12994   11.99620  47.6%     -   95s
     0     0   11.99458    0 1732    8.12994   11.99458  47.5%     -   96s
     0     0   11.99423    0 1784    8.12994   11.99423  47.5%     -   97s
     0     0   11.79403    0 1606    8.12994   11.79403  45.1%     -  106s
     0     0   11.79128    0 1648    8.12994   11.79128  45.0%     -  108s
     0     0   11.79099    0 1623    8.12994   11.79099  45.0%     -  109s
     0     0   11.77548    0 1652    8.12994   11.77548  44.8%     -  112s
     0     0   11.77300    0 1789    8.12994   11.77300  44.8%     -  114s
     0     0   11.77249    0 1779    8.12994   11.77249  44.8%     -  114s
     0     0   11.55960    0 1816    8.12994   11.55960  42.2%     -  124s
     0     0   11.55934    0 1821    8.12994   11.55934  42.2%     -  124s
H    0     0                       8.2319331   11.55934  40.4%     -  125s
H    0     0                       8.3201838   11.55934  38.9%     -  126s
H    0     0                       8.3399826   11.55934  38.6%     -  126s
H    0     0                       8.3733259   11.55934  38.0%     -  126s
     0     0   11.52616    0 1912    8.37333   11.52616  37.7%     -  131s
     0     0   11.52616    0 1910    8.37333   11.52616  37.7%     -  131s
     0     0   11.52164    0 1808    8.37333   11.52164  37.6%     -  133s
     0     0   11.52164    0 1808    8.37333   11.52164  37.6%     -  133s
     0     0   11.52086    0 1813    8.37333   11.52086  37.6%     -  134s
     0     0   11.41264    0 1717    8.37333   11.41264  36.3%     -  143s
     0     0   11.41259    0 1692    8.37333   11.41259  36.3%     -  143s
     0     0   11.38757    0 1777    8.37333   11.38757  36.0%     -  147s
     0     0   11.38757    0 1781    8.37333   11.38757  36.0%     -  147s
     0     0   11.38345    0 1718    8.37333   11.38345  35.9%     -  150s
     0     0   11.38237    0 1691    8.37333   11.38237  35.9%     -  151s
     0     0   11.38237    0 1691    8.37333   11.38237  35.9%     -  151s
     0     0   11.26148    0 1786    8.37333   11.26148  34.5%     -  161s
     0     0   11.26014    0 1703    8.37333   11.26014  34.5%     -  162s
H    0     0                       8.4737216   11.26014  32.9%     -  163s
H    0     0                       8.4867016   11.26014  32.7%     -  164s
     0     0   11.24047    0 1787    8.48670   11.24047  32.4%     -  169s
     0     0   11.24029    0 1811    8.48670   11.24029  32.4%     -  169s
     0     0   11.23507    0 1877    8.48670   11.23507  32.4%     -  171s
     0     0   11.23326    0 1905    8.48670   11.23326  32.4%     -  173s
     0     0   11.23255    0 1848    8.48670   11.23255  32.4%     -  174s
     0     0   11.11230    0 1816    8.48670   11.11230  30.9%     -  183s
     0     0   11.11205    0 1775    8.48670   11.11205  30.9%     -  184s
     0     0   11.10050    0 1708    8.48670   11.10050  30.8%     -  187s
     0     0   11.09917    0 1717    8.48670   11.09917  30.8%     -  187s
     0     0   11.09917    0 1698    8.48670   11.09917  30.8%     -  187s
     0     0   11.00379    0 1631    8.48670   11.00379  29.7%     -  198s
     0     0   11.00333    0 1679    8.48670   11.00333  29.7%     -  198s
H    0     0                       8.4922169   11.00333  29.6%     -  199s
H    0     0                       8.5682539   11.00333  28.4%     -  202s
     0     0   10.98408    0 1638    8.56825   10.98408  28.2%     -  208s
     0     0   10.98375    0 1601    8.56825   10.98375  28.2%     -  209s
     0     0   10.97979    0 1770    8.56825   10.97979  28.1%     -  211s
     0     0   10.97581    0 1745    8.56825   10.97581  28.1%     -  213s
     0     0   10.97581    0 1719    8.56825   10.97581  28.1%     -  213s
     0     0   10.97581    0 1729    8.56825   10.97581  28.1%     -  213s
     0     0   10.97555    0 1765    8.56825   10.97555  28.1%     -  214s
     0     0   10.97555    0 1770    8.56825   10.97555  28.1%     -  214s
     0     0   10.87656    0 1715    8.56825   10.87656  26.9%     -  224s
     0     0   10.87581    0 1666    8.56825   10.87581  26.9%     -  226s
     0     0   10.86382    0 1702    8.56825   10.86382  26.8%     -  229s
     0     0   10.86380    0 1690    8.56825   10.86380  26.8%     -  229s
     0     0   10.86380    0 1687    8.56825   10.86380  26.8%     -  229s
     0     0   10.86204    0 1722    8.56825   10.86204  26.8%     -  229s
     0     0   10.76419    0 1720    8.56825   10.76419  25.6%     -  239s
     0     0   10.76287    0 1632    8.56825   10.76287  25.6%     -  241s
H    0     0                       8.6852142   10.76287  23.9%     -  244s
H    0     0                       8.7215738   10.76287  23.4%     -  246s
H    0     0                       8.7250413   10.76287  23.4%     -  246s
     0     0   10.74654    0 1664    8.72504   10.74654  23.2%     -  251s
     0     0   10.74649    0 1639    8.72504   10.74649  23.2%     -  252s
     0     0   10.73880    0 1692    8.72504   10.73880  23.1%     -  254s
     0     0   10.73876    0 1675    8.72504   10.73876  23.1%     -  254s
     0     0   10.73694    0 1601    8.72504   10.73694  23.1%     -  255s
     0     0   10.73693    0 1601    8.72504   10.73693  23.1%     -  255s
     0     0   10.64925    0 1766    8.72504   10.64925  22.1%     -  266s
     0     0   10.64912    0 1761    8.72504   10.64912  22.1%     -  266s
     0     0   10.62747    0 1833    8.72504   10.62747  21.8%     -  271s
     0     0   10.61944    0 1865    8.72504   10.61944  21.7%     -  273s
     0     0   10.61941    0 1808    8.72504   10.61941  21.7%     -  273s
     0     0   10.61766    0 1772    8.72504   10.61766  21.7%     -  274s
     0     0   10.61764    0 1774    8.72504   10.61764  21.7%     -  274s
     0     0   10.51183    0 1702    8.72504   10.51183  20.5%     -  283s
     0     0   10.51134    0 1691    8.72504   10.51134  20.5%     -  283s
     0     0   10.48313    0 1814    8.72504   10.48313  20.1%     -  287s
     0     0   10.47861    0 1714    8.72504   10.47861  20.1%     -  288s
     0     0   10.47853    0 1668    8.72504   10.47853  20.1%     -  288s
     0     0   10.47838    0 1681    8.72504   10.47838  20.1%     -  288s
     0     0   10.40126    0 1748    8.72504   10.40126  19.2%     -  298s
     0     0   10.38818    0 1851    8.72504   10.38818  19.1%     -  301s
     0     0   10.38812    0 1813    8.72504   10.38812  19.1%     -  301s
     0     0   10.38812    0 1808    8.72504   10.38812  19.1%     -  301s
     0     0   10.38588    0 1839    8.72504   10.38588  19.0%     -  302s
     0     0   10.38588    0 1839    8.72504   10.38588  19.0%     -  302s
     0     0   10.29812    0 1572    8.72504   10.29812  18.0%     -  314s
     0     0   10.29811    0 1570    8.72504   10.29811  18.0%     -  314s
     0     0   10.28618    0 1645    8.72504   10.28618  17.9%     -  317s
     0     0   10.28608    0 1719    8.72504   10.28608  17.9%     -  318s
     0     0   10.28208    0 1700    8.72504   10.28208  17.8%     -  319s
     0     0   10.28000    0 1794    8.72504   10.28000  17.8%     -  320s
     0     0   10.27999    0 1705    8.72504   10.27999  17.8%     -  320s
     0     0   10.21983    0 1567    8.72504   10.21983  17.1%     -  327s
     0     0   10.21964    0 1649    8.72504   10.21964  17.1%     -  328s
H    0     0                       8.7359837   10.21964  17.0%     -  328s
     0     0   10.20546    0 1679    8.73598   10.20546  16.8%     -  332s
     0     0   10.20546    0 1654    8.73598   10.20546  16.8%     -  332s
     0     0   10.19682    0 1725    8.73598   10.19682  16.7%     -  334s
     0     0   10.19675    0 1720    8.73598   10.19675  16.7%     -  334s
     0     0   10.19538    0 1674    8.73598   10.19538  16.7%     -  335s
     0     0   10.14116    0 1607    8.73598   10.14116  16.1%     -  342s
     0     0   10.14111    0 1551    8.73598   10.14111  16.1%     -  342s
     0     0   10.13327    0 1424    8.73598   10.13327  16.0%     -  351s
     0     0   10.13312    0 1454    8.73598   10.13312  16.0%     -  351s
     0     0   10.13024    0 1631    8.73598   10.13024  16.0%     -  352s
     0     0   10.08977    0 1731    8.73598   10.08977  15.5%     -  359s
     0     0   10.08954    0 1647    8.73598   10.08954  15.5%     -  359s
     0     0   10.07885    0 1710    8.73598   10.07885  15.4%     -  362s
     0     0   10.07873    0 1758    8.73598   10.07873  15.4%     -  362s
     0     0   10.07295    0 1678    8.73598   10.07295  15.3%     -  363s
     0     0   10.07294    0 1671    8.73598   10.07294  15.3%     -  363s
     0     0   10.07125    0 1760    8.73598   10.07125  15.3%     -  364s
     0     0   10.07125    0 1754    8.73598   10.07125  15.3%     -  364s
     0     0   10.02150    0 1483    8.73598   10.02150  14.7%     -  370s
     0     0   10.02125    0 1528    8.73598   10.02125  14.7%     -  371s
     0     0   10.02125    0 1508    8.73598   10.02125  14.7%     -  371s
     0     0   10.00753    0 1635    8.73598   10.00753  14.6%     -  373s
     0     0   10.00744    0 1641    8.73598   10.00744  14.6%     -  374s
     0     0   10.00464    0 1693    8.73598   10.00464  14.5%     -  375s
     0     0   10.00425    0 1584    8.73598   10.00425  14.5%     -  376s
     0     0    9.96248    0 1531    8.73598    9.96248  14.0%     -  381s
     0     0    9.96211    0 1395    8.73598    9.96211  14.0%     -  382s
     0     0    9.95250    0 1552    8.73598    9.95250  13.9%     -  385s
     0     0    9.95249    0 1579    8.73598    9.95249  13.9%     -  385s
     0     0    9.95074    0 1461    8.73598    9.95074  13.9%     -  386s
     0     0    9.90884    0 1402    8.73598    9.90884  13.4%     -  391s
     0     0    9.90879    0 1447    8.73598    9.90879  13.4%     -  391s
     0     0    9.89900    0 1513    8.73598    9.89900  13.3%     -  394s
     0     0    9.89889    0 1537    8.73598    9.89889  13.3%     -  394s
     0     0    9.89755    0 1490    8.73598    9.89755  13.3%     -  396s
     0     0    9.89753    0 1498    8.73598    9.89753  13.3%     -  396s
     0     0    9.89753    0 1515    8.73598    9.89753  13.3%     -  396s
     0     0    9.85553    0 1638    8.73598    9.85553  12.8%     -  401s
     0     0    9.85549    0 1520    8.73598    9.85549  12.8%     -  402s
     0     0    9.84407    0 1641    8.73598    9.84407  12.7%     -  404s
     0     0    9.84405    0 1605    8.73598    9.84405  12.7%     -  404s
     0     0    9.84185    0 1666    8.73598    9.84185  12.7%     -  405s
     0     0    9.81022    0 1781    8.73598    9.81022  12.3%     -  410s
     0     0    9.80959    0 1658    8.73598    9.80959  12.3%     -  411s
     0     0    9.80192    0 1648    8.73598    9.80192  12.2%     -  423s
     0     0    9.80130    0 1578    8.73598    9.80130  12.2%     -  423s
     0     0    9.79810    0 1614    8.73598    9.79810  12.2%     -  424s
     0     0    9.79809    0 1501    8.73598    9.79809  12.2%     -  424s
     0     0    9.76135    0 1518    8.73598    9.76135  11.7%     -  430s
     0     0    9.76027    0 1596    8.73598    9.76027  11.7%     -  431s
     0     0    9.76025    0 1595    8.73598    9.76025  11.7%     -  431s
     0     0    9.75051    0 1482    8.73598    9.75051  11.6%     -  433s
     0     0    9.75040    0 1485    8.73598    9.75040  11.6%     -  433s
     0     0    9.74639    0 1555    8.73598    9.74639  11.6%     -  434s
     0     0    9.74638    0 1566    8.73598    9.74638  11.6%     -  434s
     0     0    9.74487    0 1495    8.73598    9.74487  11.5%     -  435s
     0     0    9.71801    0 1469    8.73598    9.71801  11.2%     -  439s
     0     0    9.71801    0 1470    8.73598    9.71801  11.2%     -  439s
     0     0    9.71083    0 1495    8.73598    9.71083  11.2%     -  442s
     0     0    9.70881    0 1438    8.73598    9.70881  11.1%     -  443s
     0     0    9.70878    0 1438    8.73598    9.70878  11.1%     -  443s
     0     0    9.67678    0 1787    8.73598    9.67678  10.8%     -  448s
     0     0    9.66949    0 1723    8.73598    9.66949  10.7%     -  450s
     0     0    9.66948    0 1748    8.73598    9.66948  10.7%     -  450s
     0     0    9.66684    0 1608    8.73598    9.66684  10.7%     -  452s
     0     0    9.66684    0 1606    8.73598    9.66684  10.7%     -  452s
     0     0    9.64621    0 1486    8.73598    9.64621  10.4%     -  455s
     0     0    9.63894    0 1664    8.73598    9.63894  10.3%     -  457s
     0     0    9.63886    0 1500    8.73598    9.63886  10.3%     -  457s
     0     0    9.63837    0 1558    8.73598    9.63837  10.3%     -  457s
     0     0    9.62461    0 1263    8.73598    9.62461  10.2%     -  461s
     0     0    9.62403    0 1375    8.73598    9.62403  10.2%     -  462s
     0     0    9.62403    0 1375    8.73598    9.62403  10.2%     -  463s
H    0     0                       8.7463732    9.62403  10.0%     -  475s
H    0     0                       8.7684601    9.62403  9.76%     -  475s
     0     2    9.62403    0 1375    8.76846    9.62403  9.76%     -  480s
     3     5    9.61948    3 1345    8.76846    9.61948  9.71%  4307  487s
     6     8    9.61607    6 1259    8.76846    9.61748  9.68%  3012  491s
     8    10    9.61548    8 1312    8.76846    9.61748  9.68%  3918  499s
     9    11    9.61300    9 1577    8.76846    9.61748  9.68%  3984  501s
    15    17    9.61033   15 1353    8.76846    9.61748  9.68%  3444  505s
    20    22    9.60935   20 1516    8.76846    9.61748  9.68%  3700  511s
    22    24    9.60916   22 1473    8.76846    9.61748  9.68%  3701  516s
    26    28    9.60874   26 1430    8.76846    9.61748  9.68%  3266  527s
    29    31    9.60805   29 1387    8.76846    9.61748  9.68%  3042  530s
    40    42    9.60695   39 1463    8.76846    9.61748  9.68%  2536  535s
    52    54    9.60361   51 1464    8.76846    9.61748  9.68%  2108  540s
H   57    57                       8.7770876    9.61748  9.57%  2022  546s
H   57    57                       8.7879697    9.61748  9.44%  2022  547s
    57    59    9.60040   54 1423    8.78797    9.61748  9.44%  2060  554s
    59    61    9.60244   56 1353    8.78797    9.61748  9.44%  2007  555s
    69    71    9.60065   65 1451    8.78797    9.61748  9.44%  1868  560s
    79    81    9.59597   74 1255    8.78797    9.61748  9.44%  1773  565s
    98   100    9.59322   93 1288    8.78797    9.61748  9.44%  1498  570s
   121   123    9.58951  115 1444    8.78797    9.61748  9.44%  1294  575s
   138   140    9.58843  132 1351    8.78797    9.61748  9.44%  1218  580s
   156   158    9.58455  150 1373    8.78797    9.61748  9.44%  1167  585s
   165   167    9.57900  158 1432    8.78797    9.61748  9.44%  1171  590s
   181   183    9.56998  174 1422    8.78797    9.61748  9.44%  1133  595s
   188   190    9.56789  181 1459    8.78797    9.61748  9.44%  1142  602s
   204   206    9.56566  197 1436    8.78797    9.61748  9.44%  1087  605s
   218   220    9.56249  211 1344    8.78797    9.61748  9.44%  1073  610s
   238   240    9.56024  230 1103    8.78797    9.61748  9.44%  1029  615s
   257   259    9.55281  249 1145    8.78797    9.61748  9.44%  1006  620s
   275   277    9.55058  266 1273    8.78797    9.61748  9.44%   978  625s
   310   312    9.54606  301 1425    8.78797    9.61748  9.44%   901  630s
   336   338    9.54202  327 1362    8.78797    9.61748  9.44%   863  635s
   374   376    9.53796  364 1207    8.78797    9.61748  9.44%   803  640s
   418   420    9.53047  408 1422    8.78797    9.61748  9.44%   740  645s
   453   455    9.52709  443 1543    8.78797    9.61748  9.44%   704  650s
   470   472    9.52439  460 1431    8.78797    9.61748  9.44%   690  655s
   508   510    9.52133  498 1575    8.78797    9.61748  9.44%   656  660s
H  533   533                       8.7923868    9.61748  9.38%   645  671s
H  533   533                       8.8180031    9.61748  9.07%   645  673s
H  533   533                       8.8231574    9.61748  9.00%   645  674s
H  533   533                       8.8291343    9.61748  8.93%   645  676s
   566   568    9.51457  555 1391    8.82913    9.61748  8.93%   621  680s
   594   596    9.50978  583 1241    8.82913    9.61748  8.93%   609  685s
   622   624    9.50653  611 1326    8.82913    9.61748  8.93%   597  690s
   640   642    9.49879  629 1167    8.82913    9.61748  8.93%   600  695s
   673   673    9.47490  659 1247    8.82913    9.61748  8.93%   586  700s
   702   702    9.45996  688 1249    8.82913    9.61748  8.93%   579  705s
   747   747    9.44815  733 1224    8.82913    9.61748  8.93%   556  710s
   776   776    9.44308  762 1163    8.82913    9.61748  8.93%   543  715s
   804   804    9.42983  789 1218    8.82913    9.61748  8.93%   539  720s
   835   835    9.09146  816  902    8.82913    9.61748  8.93%   533  725s
   864   864    9.41486  845 1209    8.82913    9.61748  8.93%   528  730s
   889   889    9.40684  869 1165    8.82913    9.61748  8.93%   528  735s
   911   911    9.39671  890 1255    8.82913    9.61748  8.93%   529  740s
   945   945    9.38941  924 1169    8.82913    9.61748  8.93%   521  745s
H  979   977                       8.8394504    9.61748  8.80%   513  750s
  1025  1025    9.37963 1003 1397    8.83945    9.61748  8.80%   498  755s
  1071  1071    9.36504 1048 1198    8.83945    9.61748  8.80%   485  760s
  1122  1122    9.35781 1099 1331    8.83945    9.61748  8.80%   471  765s
  1161  1161    9.35345 1138 1185    8.83945    9.61748  8.80%   464  770s
  1212  1212    9.34924 1189 1188    8.83945    9.61748  8.80%   452  775s
  1263  1263    9.34587 1240 1174    8.83945    9.61748  8.80%   439  780s
  1333  1333    9.34119 1310 1076    8.83945    9.61748  8.80%   421  785s
  1389  1389    9.32502 1365 1160    8.83945    9.61748  8.80%   410  790s
  1421  1421    9.31440 1396 1180    8.83945    9.61748  8.80%   406  804s
  1429  1429    9.31270 1404 1256    8.83945    9.61748  8.80%   404  805s
  1486  1486    9.30433 1461 1127    8.83945    9.61748  8.80%   394  810s
  1541  1541    9.29552 1516 1217    8.83945    9.61748  8.80%   386  815s
  1613  1613    9.28932 1588 1259    8.83945    9.61748  8.80%   373  820s
  1680  1680    9.28376 1655 1085    8.83945    9.61748  8.80%   361  825s
  1729  1729    9.27116 1703 1029    8.83945    9.61748  8.80%   356  830s
  1779  1779    9.26404 1752 1158    8.83945    9.61748  8.80%   351  835s
  1837  1837    9.24693 1808  983    8.83945    9.61748  8.80%   346  840s
  1893  1893    9.23912 1863  974    8.83945    9.61748  8.80%   341  845s
  1949  1949    9.22795 1917 1093    8.83945    9.61748  8.80%   336  850s
  1998  1998    9.22224 1964  933    8.83945    9.61748  8.80%   330  855s
  2052  2052    9.21112 2017  970    8.83945    9.61748  8.80%   325  860s
  2115  2115    9.19406 2079 1006    8.83945    9.61748  8.80%   320  865s
  2200  2200    9.18348 2164  941    8.83945    9.61748  8.80%   311  870s
  2279  2277    9.16501 2240  838    8.83945    9.61748  8.80%   304  875s
  2377  2375    9.14546 2336  859    8.83945    9.61748  8.80%   294  880s
  2467  2465    9.10816 2422  793    8.83945    9.61748  8.80%   287  885s
  2551  2548    9.34076 1322 1375    8.83945    9.61748  8.80%   279  931s
  2553  2549    9.59989   70  821    8.83945    9.61748  8.80%   279  938s
  2554  2550    9.31035 1412 1308    8.83945    9.61748  8.80%   279  945s
  2555  2551    9.43267  774 1484    8.83945    9.61748  8.80%   279  952s
  2556  2551    9.39699  855 1380    8.83945    9.61748  8.80%   279  963s
  2557  2552    9.12444 2393 1627    8.83945    9.61748  8.80%   279  974s
  2558  2553    9.51525  541 1822    8.83945    9.61748  8.80%   279  989s
  2559  2553    9.34909 1194 1853    8.83945    9.61748  8.80%   278 1002s
  2560  2554    9.59738   74 1910    8.83945    9.61748  8.80%   278 1019s
  2561  2555    9.52688  450 1830    8.83945    9.61748  8.80%   278 1032s
  2562  2555    9.35628 1114 1743    8.83945    9.61748  8.80%   278 1051s
  2563  2556    9.35344 1138 1592    8.83945    9.61748  8.80%   278 1063s
  2564  2557    9.59989   70 1434    8.83945    9.61748  8.80%   278 1080s
  2565  2557    9.59722    1 1477    8.83945    9.61748  8.80%   278 1089s
  2566  2558    9.48931  650 1460    8.83945    9.61748  8.80%   278 1099s
  2567  2559    9.38568  936 1233    8.83945    9.52274  7.73%   278 1105s
  2568  2559    9.47716   57 1197    8.83945    9.47716  7.21%   277 1116s
  2569  2560    9.17389 2195 1277    8.83945    9.42899  6.67%   277 1123s
  2570  2561    9.38764  623 1212    8.83945    9.38764  6.20%   277 1129s
  2571  2561    9.34731 1126 1072    8.83945    9.34731  5.75%   277 1134s
  2572  2562    9.31366  758 1165    8.83945    9.31366  5.36%   277 1147s
  2573  2563    9.28253  130 1212    8.83945    9.28253  5.01%   277 1153s
  2574  2563    9.12012 2238 1203    8.83945    9.24535  4.59%   277 1163s
  2575  2564    9.21288 1964 1190    8.83945    9.21288  4.22%   277 1168s
  2576  2565    9.18412 2157 1304    8.83945    9.18480  3.91%   277 1183s
  2577  2565    9.16598 1694 1225    8.83945    9.16598  3.69%   276 1187s
H 2577  2436                       8.9005491    9.15062  2.81%   276 1192s
  2579  2438    9.10320 2472 1028    8.90055    9.13458  2.63%   276 1197s
  2580  2438    9.12101 1058 1013    8.90055    9.12101  2.48%   276 1202s
  2581  2439    9.11120   56  912    8.90055    9.11120  2.37%   276 1205s
  2582  2440    9.09611  444  853    8.90055    9.09611  2.20%   276 1212s
  2583  2440    9.09000  300  810    8.90055    9.09000  2.13%   276 1216s
  2584  2441    9.07703 1977  733    8.90055    9.07703  1.98%   276 1223s
  2585  2442    9.07036  600  734    8.90055    9.07036  1.91%   276 1227s
H 2585  2319                       8.9057035    9.06037  1.74%   276 1231s
  2588  2321    9.05132 2276  513    8.90570    9.05132  1.64%   275 1235s
H 2589  2204                       8.9057035    9.04255  1.54%   275 1240s
  2593  2207    9.02776  919  592    8.90570    9.02776  1.37%   275 1245s
  2596  2209    9.01425 1560  452    8.90570    9.01425  1.22%   274 1253s
  2597  2210    9.00807   64  663    8.90570    9.00807  1.15%   274 1255s
  2599  2211    9.00288 2094  501    8.90570    9.00288  1.09%   274 1260s
H 2599  2100                       8.9101323    8.99974  1.01%   274 1264s
H 2599  1994                       8.9171441    8.99974  0.93%   274 1264s
  2601  1995    8.99711 1467  561    8.91714    8.99711  0.90%   274 1266s
  2604  1999    8.99353 2390 1375    8.91714    8.99353  0.86%   533 1272s
  2606  2000    8.99353 2358 1029    8.91714    8.99353  0.86%   532 1276s
H 2606  1899                       8.9171442    8.99353  0.86%   532 1279s
  2608  1901    8.99353   28 1410    8.91714    8.99353  0.86%   532 1282s
  2609  1901    8.99353 2311 1439    8.91714    8.99353  0.86%   532 1288s
  2610  1902    8.99353 2146 1264    8.91714    8.99353  0.86%   532 1292s
  2611  1903    8.99353 2474 1465    8.91714    8.99353  0.86%   531 1298s
  2612  1903    8.99353   70 1360    8.91714    8.99353  0.86%   531 1301s
H 2612  1808                       8.9180886    8.99353  0.85%   531 1306s
  2614  1810    8.99353 1479 1310    8.91809    8.99353  0.85%   531 1311s
  2615  1810    8.99353  258 1094    8.91809    8.99353  0.85%   531 1316s
  2616  1811    8.99353  233 1407    8.91809    8.99353  0.85%   530 1321s
  2617  1812    8.99353  988 1100    8.91809    8.99353  0.85%   530 1326s
  2619  1813    8.99353 2033  929    8.91809    8.99353  0.85%   530 1334s
  2620  1814    8.99353   64  847    8.91809    8.99353  0.85%   530 1337s
  2621  1814    8.99353  861  856    8.91809    8.99353  0.85%   529 1341s
  2623  1816    8.98833  853  861    8.91809    8.98833  0.79%   529 1346s
  2627  1820    8.96335 2134 1375    8.91809    8.96335  0.51%   622 1351s
  2631  1823    8.96335  150 1181    8.91809    8.96335  0.51%   621 1355s
  2634  1825    8.96335 1117 1151    8.91809    8.96335  0.51%   620 1361s
  2637  1827    8.96335  555 1096    8.91809    8.96335  0.51%   619 1365s
H 2639  1736                       8.9310253    8.96335  0.36%   619 1370s
  2653  1747    8.95116   70  470    8.93103    8.95116  0.23%   648 1375s
* 2663  1667              57       8.9368465    8.93685  0.00%   656 1375s

Cutting planes:
  Learned: 8
  Gomory: 6
  Cover: 3
  Implied bound: 44
  Projected implied bound: 1
  Clique: 4
  MIR: 14
  Flow cover: 30
  GUB cover: 1
  RLT: 11
  Relax-and-lift: 31

Explored 2663 nodes (2832142 simplex iterations) in 1375.66 seconds (3099.59 work units)
Thread count was 1 (of 11 available processors)

Solution count 10: 8.93685 8.93685 8.93103 ... 8.90055

Optimal solution found (tolerance 1.00e-04)
Best objective 8.936846504326e+00, best bound 8.936846504326e+00, gap 0.0000%
